NAME : cgl_45.7995.tour
COMMENT : Length = 7995
COMMENT : Found by LKH-3 [Keld Helsgaun] Thu Jun 26 21:26:48 2025
TYPE : TOUR
DIMENSION : 46
TOUR_SECTION
17
18
29
26
20
25
24
28
22
23
19
27
21
46
31
32
33
35
36
34
37
38
40
39
42
43
41
44
45
11
10
9
12
8
7
6
2
4
3
5
1
13
14
15
16
30
-1
EOF
